Route #1: 9 12 46 4 29 35 38 
Route #2: 3 43 24 27 42 47 22 31 41 
Route #3: 44 19 17 48 2 15 34 6 
Route #4: 33 23 1 39 26 13 
Route #5: 10 16 14 30 25 18 7 
Route #6: 32 28 49 40 
Route #7: 45 36 20 37 11 8 5 21 
cost 834.575